NAME : prob20a
TYPE : PDTSP
DIMENSION : 41
EDGE_WEIGHT_TYPE : EUC_2D
NODE_COORD_SECTION
1 23 104
2 319 912
3 241 388
4 315 619
5 684 899
6 868 929
7 123 133
8 805 299
9 829 679
10 3 171
11 725 116
12 312 927
13 59 394
14 54 242
15 484 154
16 119 258
17 279 557
18 36 542
19 702 484
20 26 18
21 862 885
22 30 574
23 689 857
24 447 786
25 438 539
26 240 447
27 199 284
28 726 502
29 235 59
30 656 381
31 881 692
32 742 42
33 717 87
34 986 625
35 757 786
36 684 194
37 196 427
38 758 547
39 723 488
40 791 352
41 466 784
PICKUP_AND_DELIVERY_SECTION
1 0 0 0 0 0 0
2 0 0 0 0 22 0
3 0 0 0 0 23 0
4 0 0 0 0 24 0
5 0 0 0 0 25 0
6 0 0 0 0 26 0
7 0 0 0 0 27 0
8 0 0 0 0 28 0
9 0 0 0 0 29 0
10 0 0 0 0 30 0
11 0 0 0 0 31 0
12 0 0 0 0 32 0
13 0 0 0 0 33 0
14 0 0 0 0 34 0
15 0 0 0 0 35 0
16 0 0 0 0 36 0
17 0 0 0 0 37 0
18 0 0 0 0 38 0
19 0 0 0 0 39 0
20 0 0 0 0 40 0
21 0 0 0 0 41 0
22 0 0 0 0 0 2
23 0 0 0 0 0 3
24 0 0 0 0 0 4
25 0 0 0 0 0 5
26 0 0 0 0 0 6
27 0 0 0 0 0 7
28 0 0 0 0 0 8
29 0 0 0 0 0 9
30 0 0 0 0 0 10
31 0 0 0 0 0 11
32 0 0 0 0 0 12
33 0 0 0 0 0 13
34 0 0 0 0 0 14
35 0 0 0 0 0 15
36 0 0 0 0 0 16
37 0 0 0 0 0 17
38 0 0 0 0 0 18
39 0 0 0 0 0 19
40 0 0 0 0 0 20
41 0 0 0 0 0 21
DEPOT_SECTION
1 
-1
EOF
